
--- Job bchfcnet.gms Start 02/09/22 14:03:55 34.3.0 rac355f3 WEX-WEI x86 64bit/MS Windows
--- Applying:
    C:\GAMS\34\gmsprmNT.txt
--- GAMS Parameters defined
    Input C:\Users\dekhi\Desktop\gamsworld\FCNetLib\test\bchfcnet.gms
    PageSize 0
    ScrDir C:\Users\dekhi\Desktop\gamsworld\FCNetLib\test\225a\
    SysDir C:\GAMS\34\
    LogOption 3
    ErrMsg 1
    ErrorLog 99
    IDE 1
    ResLim 3600
    LstTitleLeftAligned 1
Licensee: Eval License                                   S211214|0002AW-GEN
          Ostfalia Hochschule fuer angewandte Wissenschaften        DCE1645
          C:\Users\dekhi\Documents\GAMS\gamslice.txt
          License Admin: Mohamed Ali Dekhil, dekhil.medali@gmail.com       
          Evaluation license: Not for commercial or production use
GAMS 34.3.0   Copyright (C) 1987-2021 GAMS Development. All rights reserved
--- Starting compilation
--- bchfcnet.gms(34) 2 Mb
--- . decl.gms(15) 2 Mb
--- bchfcnet.gms(38) 2 Mb
--- . p80x400.inc(870) 3 Mb
--- bchfcnet.gms(67) 3 Mb
--- . equs.gms(20) 3 Mb
--- bchfcnet.gms(97) 3 Mb
--- call rm -f bchout_i.gdx startcut.txt startheur.txt cuthist.gdx agap.txt rgap.txt cntfail.txt
--- bchfcnet.gms(118) 3 Mb
--- Starting execution: elapsed 0:00:00.104
--- bchfcnet.gms(928) 4 Mb
--- GDX File (execute_unload) C:\Users\dekhi\Desktop\gamsworld\FCNetLib\test\net.gdx
--- bchfcnet.gms(1019) 4 Mb
--- GDXin=C:\Users\dekhi\Desktop\gamsworld\FCNetLib\test\points\p80x400.gdx
--- GDX File (execute_load) C:\Users\dekhi\Desktop\gamsworld\FCNetLib\test\points\p80x400.gdx
--- Generating MIP model master
--- bchfcnet.gms(1023) 5 Mb
---   481 rows  801 columns  2,371 non-zeroes
---   400 discrete-columns
--- Executing CPLEX (Solvelink=2): elapsed 0:00:00.125

IBM ILOG CPLEX   34.3.0 rac355f3 Released Feb 25, 2021 WEI x86 64bit/MS Window

--- GAMS/Cplex Link licensed for continuous and discrete problems.

Reading parameter(s) from "C:\Users\dekhi\Desktop\gamsworld\FCNetLib\test\cplex.op2"
>>  mipstart 1
Finished reading from "C:\Users\dekhi\Desktop\gamsworld\FCNetLib\test\cplex.op2"

--- Space for names approximately 0.03 Mb
--- Use option 'names no' to turn use of names off
--- GMO memory 0.65 Mb (peak 0.65 Mb)
--- Dictionary memory 0.00 Mb
--- Cplex 20.1.0.0 link memory 0.02 Mb (peak 0.09 Mb)
--- Starting Cplex

Version identifier: 20.1.0.0 | 2020-11-10 | 9bedb6d68
CPXPARAM_Threads                                 1
CPXPARAM_MIP_Display                             4
CPXPARAM_TimeLimit                               3600
CPXPARAM_MIP_Tolerances_AbsMIPGap                0
CPXPARAM_MIP_Tolerances_MIPGap                   0
Generic callback                                 0x50
Processing 1 MIP starts.
MIP start 'm1' defined solution with objective 8548.0000.
1 of 1 MIP starts provided solutions.
MIP start 'm1' defined initial solution with objective 8548.0000.
Tried aggregator 2 times.
MIP Presolve eliminated 48 rows and 7 columns.
MIP Presolve added 87 rows and 0 columns.
Aggregator did 2 substitutions.
Reduced MIP has 517 rows, 792 columns, and 1670 nonzeros.
Reduced MIP has 396 binaries, 0 generals, 0 SOSs, and 0 indicators.
Presolve time = 0.00 sec. (2.67 ticks)
Probing fixed 0 vars, tightened 2 bounds.
Probing time = 0.00 sec. (0.10 ticks)
Tried aggregator 1 time.
Detecting symmetries...
MIP Presolve modified 2 coefficients.
Reduced MIP has 517 rows, 792 columns, and 1670 nonzeros.
Reduced MIP has 396 binaries, 0 generals, 0 SOSs, and 0 indicators.
Presolve time = 0.00 sec. (2.36 ticks)
Probing time = 0.00 sec. (0.10 ticks)
Clique table members: 8.
MIP emphasis: balance optimality and feasibility.
MIP search method: dynamic search.
Parallel mode: none, using 1 thread.
Tried aggregator 1 time.
LP Presolve eliminated 353 rows and 363 columns.
Aggregator did 43 substitutions.
Reduced LP has 116 rows, 386 columns, and 858 nonzeros.
Presolve time = 0.00 sec. (0.46 ticks)

Iteration log . . .
Iteration:     1   Dual objective     =           354.900000
Iteration:    62   Dual objective     =          4807.407500
Initializing dual steep norms . . .
Root relaxation solution time = 0.00 sec. (0.99 ticks)

        Nodes                                         Cuts/
   Node  Left     Objective  IInf  Best Integer    Best Bound    ItCnt     Gap

*     0+    0                         8548.0000        0.0000           100.00%
Found incumbent of value 8548.000000 after 0.01 sec. (7.36 ticks)
      0     0     4824.6500    53     8548.0000     4824.6500       70   43.56%
      0     0     7655.3277    53     8548.0000     Cuts: 202      187   10.44%
      0     0     7921.8385    80     8548.0000     Cuts: 117      256    7.33%
      0     0     8076.2556    64     8548.0000     Cuts: 124      332    5.52%
      0     0     8150.8164    61     8548.0000      Cuts: 90      394    4.65%
      0     0     8198.8663    81     8548.0000      Cuts: 67      467    4.08%
Detecting symmetries...
      0     0     8246.5783    81     8548.0000      Cuts: 97      549    3.53%
      0     0     8291.9677    69     8548.0000     Cuts: 107      612    3.00%
      0     0     8309.2399    71     8548.0000      Cuts: 53      677    2.79%
      0     0     8314.5357    86     8548.0000      Cuts: 28      711    2.73%
      0     0     8321.2095    77     8548.0000      Cuts: 63      754    2.65%
      0     0     8329.2731    77     8548.0000      Cuts: 45      812    2.56%
      0     0     8332.4627    96     8548.0000      Cuts: 54      851    2.52%
      0     0     8335.7086    83     8548.0000      Cuts: 37      890    2.48%
      0     0     8339.7497    92     8548.0000      Cuts: 42      940    2.44%
      0     0     8341.2292    95     8548.0000      Cuts: 26      974    2.42%
      0     0     8342.1347    94     8548.0000      Cuts: 35     1009    2.41%
      0     0     8342.8742    94     8548.0000      Cuts: 30     1045    2.40%
Detecting symmetries...
      0     2     8342.8742    94     8548.0000     8342.8788     1045    2.40%
Elapsed time = 0.45 sec. (409.78 ticks, tree = 0.01 MB, solutions = 1)
    137   103     8529.3094    29     8548.0000     8353.1325     4258    2.28%
                                                  Impl Bds: 3                  
    408   285     8360.7646    69     8548.0000     8357.5931     8666    2.23%
                                                      Cuts: 9                  
    702   481     8389.5893    67     8548.0000     8363.0005    12682    2.16%
                                                     Cuts: 13                  
    891   601     8436.8073    57     8548.0000     8365.3467    17191    2.14%
                                                      Cuts: 4                  
   1014   684     8479.7171    49     8548.0000     8368.9981    21915    2.09%
                                                     Cuts: 19                  

Performing restart 1

Repeating presolve.
Tried aggregator 1 time.
MIP Presolve modified 470 coefficients.
Reduced MIP has 517 rows, 792 columns, and 1670 nonzeros.
Reduced MIP has 396 binaries, 0 generals, 0 SOSs, and 0 indicators.
Presolve time = 0.00 sec. (2.09 ticks)
Tried aggregator 1 time.
MIP Presolve modified 51 coefficients.
Reduced MIP has 517 rows, 792 columns, and 1670 nonzeros.
Reduced MIP has 396 binaries, 0 generals, 0 SOSs, and 0 indicators.
Presolve time = 0.00 sec. (2.33 ticks)
Represolve time = 0.01 sec. (7.34 ticks)
Tried aggregator 1 time.
LP Presolve eliminated 49 rows and 35 columns.
Aggregator did 4 substitutions.
Reduced LP has 787 rows, 753 columns, and 5464 nonzeros.
Presolve time = 0.00 sec. (0.72 ticks)
Initializing dual steep norms . . .

Iteration log . . .
Iteration:     1   Dual objective     =           338.000000
Iteration:    89   Dual objective     =          5551.219818
Iteration:   172   Dual objective     =          7855.143173
Iteration:   234   Dual objective     =          8247.708074
Iteration:   296   Dual objective     =          8324.542652
Iteration:   358   Dual objective     =          8341.604361
Initializing dual steep norms . . .
   1016     0     8356.7206    98     8548.0000      Cuts: 64    22437    2.09%
   1016     0     8378.0296    90     8548.0000      Cuts: 96    22547    1.99%
   1016     0     8388.8632    72     8548.0000     Cuts: 105    22649    1.86%
   1016     0     8404.1893    90     8548.0000      Cuts: 57    22736    1.68%
   1016     0     8412.2884   115     8548.0000      Cuts: 89    22840    1.59%
   1016     0     8418.7499    83     8548.0000     Cuts: 110    22931    1.51%
   1016     0     8422.3918    92     8548.0000      Cuts: 62    22990    1.47%
   1016     0     8426.2348    89     8548.0000      Cuts: 91    23073    1.42%
   1016     0     8427.3628    94     8548.0000     Cuts: 108    23119    1.41%
   1016     0     8429.8405    94     8548.0000      Cuts: 42    23179    1.38%
   1016     0     8432.7725    96     8548.0000     Cuts: 102    23265    1.35%
   1016     0     8437.7834   122     8548.0000     Cuts: 102    23357    1.29%
   1016     0     8441.0323    98     8548.0000     Cuts: 108    23439    1.25%
   1016     0     8443.6513   122     8548.0000      Cuts: 68    23546    1.22%
   1016     0     8448.3951   118     8548.0000      Cuts: 60    23628    1.17%
   1016     0     8451.4556   107     8548.0000      Cuts: 95    23708    1.13%
   1016     0     8453.8485   120     8548.0000      Cuts: 74    23797    1.10%
   1016     0     8454.8696    95     8548.0000      Cuts: 65    23856    1.09%
   1016     0     8457.4878   109     8548.0000      Cuts: 44    23936    1.06%
   1016     0     8459.4905    98     8548.0000      Cuts: 71    24024    1.04%
   1016     0     8461.0897   113     8548.0000      Cuts: 43    24065    1.02%
   1016     0     8462.4645   107     8548.0000      Cuts: 74    24130    1.00%
   1016     0     8463.2117   102     8548.0000      Cuts: 45    24176    0.99%
   1016     0     8464.3682    98     8548.0000      Cuts: 42    24254    0.98%
   1016     0     8465.0653   104     8548.0000      Cuts: 47    24310    0.97%
   1016     0     8465.5395   114     8548.0000      Cuts: 52    24374    0.96%
   1016     2     8465.9849   100     8548.0000     8466.1022    24374    0.96%
   1019     5     8474.4442    73     8548.0000     8466.2907    24693    0.96%
   1024     6     8529.4017    51     8548.0000     8466.2907    25135    0.96%
   1036     6     8508.6778    80     8548.0000     8483.0239    25576    0.76%
   1255    86     8544.8903    52     8548.0000     8516.1300    35863    0.37%
                                                     Cuts: 66                  
Elapsed time = 4.64 sec. (4993.23 ticks, tree = 0.24 MB, solutions = 1)

Cover cuts applied:  30
Implied bound cuts applied:  6
Flow cuts applied:  214
Mixed integer rounding cuts applied:  64
Flow path cuts applied:  4
Zero-half cuts applied:  3
Multi commodity flow cuts applied:  6
Lift and project cuts applied:  12
Gomory fractional cuts applied:  28

Root node processing (before b&c):
  Real time             =    0.45 sec. (409.76 ticks)
Sequential b&c:
  Real time             =    4.72 sec. (5234.08 ticks)
                          ------------
Total (root+branch&cut) =    5.17 sec. (5643.84 ticks)

--- MIP status (101): integer optimal solution.
--- Cplex Time: 5.17sec (det. 5643.84 ticks)

--- Fixing integer variables and solving final LP...

Version identifier: 20.1.0.0 | 2020-11-10 | 9bedb6d68
CPXPARAM_Advance                                 2
CPXPARAM_Threads                                 1
CPXPARAM_MIP_Display                             4
CPXPARAM_TimeLimit                               3600
CPXPARAM_MIP_Tolerances_AbsMIPGap                0
CPXPARAM_MIP_Tolerances_MIPGap                   0
Tried aggregator 1 time.
LP Presolve eliminated 480 rows and 801 columns.
All rows and columns eliminated.
Presolve time = 0.00 sec. (0.29 ticks)

--- Fixed MIP status (1): optimal.
--- Cplex Time: 0.00sec (det. 0.49 ticks)


Proven optimal solution
MIP Solution:         8548.000000    (46340 iterations, 1568 nodes)
Final Solve:          8548.000000    (0 iterations)

Best possible:        8548.000000
Absolute gap:            0.000000
Relative gap:            0.000000

--- Reading solution for model master
*** Status: Normal completion
--- Job bchfcnet.gms Stop 02/09/22 14:04:00 elapsed 0:00:05.345
